p cnf 440 2086
1 2 3 4 0
5 6 7 8 0
9 10 11 12 0
13 14 15 16 0
17 18 19 20 0
21 22 23 24 0
25 26 27 28 0
29 30 31 32 0
33 34 35 36 0
37 38 39 40 0
41 42 43 44 0
45 46 47 48 0
49 50 51 52 0
53 54 55 56 0
57 58 59 60 0
61 62 63 64 0
65 66 67 68 0
69 70 71 72 0
73 74 75 76 0
77 78 79 80 0
81 82 83 84 0
85 86 87 88 0
89 90 91 92 0
93 94 95 96 0
97 98 99 100 0
101 102 103 104 0
105 106 107 108 0
109 110 111 112 0
113 114 115 116 0
117 118 119 120 0
121 122 123 124 0
125 126 127 128 0
129 130 131 132 0
133 134 135 136 0
137 138 139 140 0
141 142 143 144 0
145 146 147 148 0
149 150 151 152 0
153 154 155 156 0
157 158 159 160 0
161 162 163 164 0
165 166 167 168 0
169 170 171 172 0
173 174 175 176 0
177 178 179 180 0
181 182 183 184 0
185 186 187 188 0
189 190 191 192 0
193 194 195 196 0
197 198 199 200 0
201 202 203 204 0
205 206 207 208 0
209 210 211 212 0
213 214 215 216 0
217 218 219 220 0
221 222 223 224 0
225 226 227 228 0
229 230 231 232 0
233 234 235 236 0
237 238 239 240 0
241 242 243 244 0
245 246 247 248 0
249 250 251 252 0
253 254 255 256 0
257 258 259 260 0
261 262 263 264 0
265 266 267 268 0
269 270 271 272 0
273 274 275 276 0
277 278 279 280 0
281 282 283 284 0
285 286 287 288 0
289 290 291 292 0
293 294 295 296 0
297 298 299 300 0
301 302 303 304 0
305 306 307 308 0
309 310 311 312 0
313 314 315 316 0
317 318 319 320 0
321 322 323 324 0
325 326 327 328 0
329 330 331 332 0
333 334 335 336 0
337 338 339 340 0
341 342 343 344 0
345 346 347 348 0
349 350 351 352 0
353 354 355 356 0
357 358 359 360 0
361 362 363 364 0
365 366 367 368 0
369 370 371 372 0
373 374 375 376 0
377 378 379 380 0
381 382 383 384 0
385 386 387 388 0
389 390 391 392 0
393 394 395 396 0
397 398 399 400 0
401 402 403 404 0
405 406 407 408 0
409 410 411 412 0
413 414 415 416 0
417 418 419 420 0
421 422 423 424 0
425 426 427 428 0
429 430 431 432 0
433 434 435 436 0
437 438 439 440 0
-1 -2 0
-1 -3 0
-1 -4 0
-2 -3 0
-2 -4 0
-3 -4 0
-5 -6 0
-5 -7 0
-5 -8 0
-6 -7 0
-6 -8 0
-7 -8 0
-9 -10 0
-9 -11 0
-9 -12 0
-10 -11 0
-10 -12 0
-11 -12 0
-13 -14 0
-13 -15 0
-13 -16 0
-14 -15 0
-14 -16 0
-15 -16 0
-17 -18 0
-17 -19 0
-17 -20 0
-18 -19 0
-18 -20 0
-19 -20 0
-21 -22 0
-21 -23 0
-21 -24 0
-22 -23 0
-22 -24 0
-23 -24 0
-25 -26 0
-25 -27 0
-25 -28 0
-26 -27 0
-26 -28 0
-27 -28 0
-29 -30 0
-29 -31 0
-29 -32 0
-30 -31 0
-30 -32 0
-31 -32 0
-33 -34 0
-33 -35 0
-33 -36 0
-34 -35 0
-34 -36 0
-35 -36 0
-37 -38 0
-37 -39 0
-37 -40 0
-38 -39 0
-38 -40 0
-39 -40 0
-41 -42 0
-41 -43 0
-41 -44 0
-42 -43 0
-42 -44 0
-43 -44 0
-45 -46 0
-45 -47 0
-45 -48 0
-46 -47 0
-46 -48 0
-47 -48 0
-49 -50 0
-49 -51 0
-49 -52 0
-50 -51 0
-50 -52 0
-51 -52 0
-53 -54 0
-53 -55 0
-53 -56 0
-54 -55 0
-54 -56 0
-55 -56 0
-57 -58 0
-57 -59 0
-57 -60 0
-58 -59 0
-58 -60 0
-59 -60 0
-61 -62 0
-61 -63 0
-61 -64 0
-62 -63 0
-62 -64 0
-63 -64 0
-65 -66 0
-65 -67 0
-65 -68 0
-66 -67 0
-66 -68 0
-67 -68 0
-69 -70 0
-69 -71 0
-69 -72 0
-70 -71 0
-70 -72 0
-71 -72 0
-73 -74 0
-73 -75 0
-73 -76 0
-74 -75 0
-74 -76 0
-75 -76 0
-77 -78 0
-77 -79 0
-77 -80 0
-78 -79 0
-78 -80 0
-79 -80 0
-81 -82 0
-81 -83 0
-81 -84 0
-82 -83 0
-82 -84 0
-83 -84 0
-85 -86 0
-85 -87 0
-85 -88 0
-86 -87 0
-86 -88 0
-87 -88 0
-89 -90 0
-89 -91 0
-89 -92 0
-90 -91 0
-90 -92 0
-91 -92 0
-93 -94 0
-93 -95 0
-93 -96 0
-94 -95 0
-94 -96 0
-95 -96 0
-97 -98 0
-97 -99 0
-97 -100 0
-98 -99 0
-98 -100 0
-99 -100 0
-101 -102 0
-101 -103 0
-101 -104 0
-102 -103 0
-102 -104 0
-103 -104 0
-105 -106 0
-105 -107 0
-105 -108 0
-106 -107 0
-106 -108 0
-107 -108 0
-109 -110 0
-109 -111 0
-109 -112 0
-110 -111 0
-110 -112 0
-111 -112 0
-113 -114 0
-113 -115 0
-113 -116 0
-114 -115 0
-114 -116 0
-115 -116 0
-117 -118 0
-117 -119 0
-117 -120 0
-118 -119 0
-118 -120 0
-119 -120 0
-121 -122 0
-121 -123 0
-121 -124 0
-122 -123 0
-122 -124 0
-123 -124 0
-125 -126 0
-125 -127 0
-125 -128 0
-126 -127 0
-126 -128 0
-127 -128 0
-129 -130 0
-129 -131 0
-129 -132 0
-130 -131 0
-130 -132 0
-131 -132 0
-133 -134 0
-133 -135 0
-133 -136 0
-134 -135 0
-134 -136 0
-135 -136 0
-137 -138 0
-137 -139 0
-137 -140 0
-138 -139 0
-138 -140 0
-139 -140 0
-141 -142 0
-141 -143 0
-141 -144 0
-142 -143 0
-142 -144 0
-143 -144 0
-145 -146 0
-145 -147 0
-145 -148 0
-146 -147 0
-146 -148 0
-147 -148 0
-149 -150 0
-149 -151 0
-149 -152 0
-150 -151 0
-150 -152 0
-151 -152 0
-153 -154 0
-153 -155 0
-153 -156 0
-154 -155 0
-154 -156 0
-155 -156 0
-157 -158 0
-157 -159 0
-157 -160 0
-158 -159 0
-158 -160 0
-159 -160 0
-161 -162 0
-161 -163 0
-161 -164 0
-162 -163 0
-162 -164 0
-163 -164 0
-165 -166 0
-165 -167 0
-165 -168 0
-166 -167 0
-166 -168 0
-167 -168 0
-169 -170 0
-169 -171 0
-169 -172 0
-170 -171 0
-170 -172 0
-171 -172 0
-173 -174 0
-173 -175 0
-173 -176 0
-174 -175 0
-174 -176 0
-175 -176 0
-177 -178 0
-177 -179 0
-177 -180 0
-178 -179 0
-178 -180 0
-179 -180 0
-181 -182 0
-181 -183 0
-181 -184 0
-182 -183 0
-182 -184 0
-183 -184 0
-185 -186 0
-185 -187 0
-185 -188 0
-186 -187 0
-186 -188 0
-187 -188 0
-189 -190 0
-189 -191 0
-189 -192 0
-190 -191 0
-190 -192 0
-191 -192 0
-193 -194 0
-193 -195 0
-193 -196 0
-194 -195 0
-194 -196 0
-195 -196 0
-197 -198 0
-197 -199 0
-197 -200 0
-198 -199 0
-198 -200 0
-199 -200 0
-201 -202 0
-201 -203 0
-201 -204 0
-202 -203 0
-202 -204 0
-203 -204 0
-205 -206 0
-205 -207 0
-205 -208 0
-206 -207 0
-206 -208 0
-207 -208 0
-209 -210 0
-209 -211 0
-209 -212 0
-210 -211 0
-210 -212 0
-211 -212 0
-213 -214 0
-213 -215 0
-213 -216 0
-214 -215 0
-214 -216 0
-215 -216 0
-217 -218 0
-217 -219 0
-217 -220 0
-218 -219 0
-218 -220 0
-219 -220 0
-221 -222 0
-221 -223 0
-221 -224 0
-222 -223 0
-222 -224 0
-223 -224 0
-225 -226 0
-225 -227 0
-225 -228 0
-226 -227 0
-226 -228 0
-227 -228 0
-229 -230 0
-229 -231 0
-229 -232 0
-230 -231 0
-230 -232 0
-231 -232 0
-233 -234 0
-233 -235 0
-233 -236 0
-234 -235 0
-234 -236 0
-235 -236 0
-237 -238 0
-237 -239 0
-237 -240 0
-238 -239 0
-238 -240 0
-239 -240 0
-241 -242 0
-241 -243 0
-241 -244 0
-242 -243 0
-242 -244 0
-243 -244 0
-245 -246 0
-245 -247 0
-245 -248 0
-246 -247 0
-246 -248 0
-247 -248 0
-249 -250 0
-249 -251 0
-249 -252 0
-250 -251 0
-250 -252 0
-251 -252 0
-253 -254 0
-253 -255 0
-253 -256 0
-254 -255 0
-254 -256 0
-255 -256 0
-257 -258 0
-257 -259 0
-257 -260 0
-258 -259 0
-258 -260 0
-259 -260 0
-261 -262 0
-261 -263 0
-261 -264 0
-262 -263 0
-262 -264 0
-263 -264 0
-265 -266 0
-265 -267 0
-265 -268 0
-266 -267 0
-266 -268 0
-267 -268 0
-269 -270 0
-269 -271 0
-269 -272 0
-270 -271 0
-270 -272 0
-271 -272 0
-273 -274 0
-273 -275 0
-273 -276 0
-274 -275 0
-274 -276 0
-275 -276 0
-277 -278 0
-277 -279 0
-277 -280 0
-278 -279 0
-278 -280 0
-279 -280 0
-281 -282 0
-281 -283 0
-281 -284 0
-282 -283 0
-282 -284 0
-283 -284 0
-285 -286 0
-285 -287 0
-285 -288 0
-286 -287 0
-286 -288 0
-287 -288 0
-289 -290 0
-289 -291 0
-289 -292 0
-290 -291 0
-290 -292 0
-291 -292 0
-293 -294 0
-293 -295 0
-293 -296 0
-294 -295 0
-294 -296 0
-295 -296 0
-297 -298 0
-297 -299 0
-297 -300 0
-298 -299 0
-298 -300 0
-299 -300 0
-301 -302 0
-301 -303 0
-301 -304 0
-302 -303 0
-302 -304 0
-303 -304 0
-305 -306 0
-305 -307 0
-305 -308 0
-306 -307 0
-306 -308 0
-307 -308 0
-309 -310 0
-309 -311 0
-309 -312 0
-310 -311 0
-310 -312 0
-311 -312 0
-313 -314 0
-313 -315 0
-313 -316 0
-314 -315 0
-314 -316 0
-315 -316 0
-317 -318 0
-317 -319 0
-317 -320 0
-318 -319 0
-318 -320 0
-319 -320 0
-321 -322 0
-321 -323 0
-321 -324 0
-322 -323 0
-322 -324 0
-323 -324 0
-325 -326 0
-325 -327 0
-325 -328 0
-326 -327 0
-326 -328 0
-327 -328 0
-329 -330 0
-329 -331 0
-329 -332 0
-330 -331 0
-330 -332 0
-331 -332 0
-333 -334 0
-333 -335 0
-333 -336 0
-334 -335 0
-334 -336 0
-335 -336 0
-337 -338 0
-337 -339 0
-337 -340 0
-338 -339 0
-338 -340 0
-339 -340 0
-341 -342 0
-341 -343 0
-341 -344 0
-342 -343 0
-342 -344 0
-343 -344 0
-345 -346 0
-345 -347 0
-345 -348 0
-346 -347 0
-346 -348 0
-347 -348 0
-349 -350 0
-349 -351 0
-349 -352 0
-350 -351 0
-350 -352 0
-351 -352 0
-353 -354 0
-353 -355 0
-353 -356 0
-354 -355 0
-354 -356 0
-355 -356 0
-357 -358 0
-357 -359 0
-357 -360 0
-358 -359 0
-358 -360 0
-359 -360 0
-361 -362 0
-361 -363 0
-361 -364 0
-362 -363 0
-362 -364 0
-363 -364 0
-365 -366 0
-365 -367 0
-365 -368 0
-366 -367 0
-366 -368 0
-367 -368 0
-369 -370 0
-369 -371 0
-369 -372 0
-370 -371 0
-370 -372 0
-371 -372 0
-373 -374 0
-373 -375 0
-373 -376 0
-374 -375 0
-374 -376 0
-375 -376 0
-377 -378 0
-377 -379 0
-377 -380 0
-378 -379 0
-378 -380 0
-379 -380 0
-381 -382 0
-381 -383 0
-381 -384 0
-382 -383 0
-382 -384 0
-383 -384 0
-385 -386 0
-385 -387 0
-385 -388 0
-386 -387 0
-386 -388 0
-387 -388 0
-389 -390 0
-389 -391 0
-389 -392 0
-390 -391 0
-390 -392 0
-391 -392 0
-393 -394 0
-393 -395 0
-393 -396 0
-394 -395 0
-394 -396 0
-395 -396 0
-397 -398 0
-397 -399 0
-397 -400 0
-398 -399 0
-398 -400 0
-399 -400 0
-401 -402 0
-401 -403 0
-401 -404 0
-402 -403 0
-402 -404 0
-403 -404 0
-405 -406 0
-405 -407 0
-405 -408 0
-406 -407 0
-406 -408 0
-407 -408 0
-409 -410 0
-409 -411 0
-409 -412 0
-410 -411 0
-410 -412 0
-411 -412 0
-413 -414 0
-413 -415 0
-413 -416 0
-414 -415 0
-414 -416 0
-415 -416 0
-417 -418 0
-417 -419 0
-417 -420 0
-418 -419 0
-418 -420 0
-419 -420 0
-421 -422 0
-421 -423 0
-421 -424 0
-422 -423 0
-422 -424 0
-423 -424 0
-425 -426 0
-425 -427 0
-425 -428 0
-426 -427 0
-426 -428 0
-427 -428 0
-429 -430 0
-429 -431 0
-429 -432 0
-430 -431 0
-430 -432 0
-431 -432 0
-433 -434 0
-433 -435 0
-433 -436 0
-434 -435 0
-434 -436 0
-435 -436 0
-437 -438 0
-437 -439 0
-437 -440 0
-438 -439 0
-438 -440 0
-439 -440 0
-1 -5 0
-2 -6 0
-3 -7 0
-4 -8 0
-1 -9 0
-2 -10 0
-3 -11 0
-4 -12 0
-1 -13 0
-2 -14 0
-3 -15 0
-4 -16 0
-1 -17 0
-2 -18 0
-3 -19 0
-4 -20 0
-1 -21 0
-2 -22 0
-3 -23 0
-4 -24 0
-1 -25 0
-2 -26 0
-3 -27 0
-4 -28 0
-1 -29 0
-2 -30 0
-3 -31 0
-4 -32 0
-1 -33 0
-2 -34 0
-3 -35 0
-4 -36 0
-1 -37 0
-2 -38 0
-3 -39 0
-4 -40 0
-1 -41 0
-2 -42 0
-3 -43 0
-4 -44 0
-1 -45 0
-2 -46 0
-3 -47 0
-4 -48 0
-5 -49 0
-6 -50 0
-7 -51 0
-8 -52 0
-5 -53 0
-6 -54 0
-7 -55 0
-8 -56 0
-5 -57 0
-6 -58 0
-7 -59 0
-8 -60 0
-5 -61 0
-6 -62 0
-7 -63 0
-8 -64 0
-5 -65 0
-6 -66 0
-7 -67 0
-8 -68 0
-5 -69 0
-6 -70 0
-7 -71 0
-8 -72 0
-5 -73 0
-6 -74 0
-7 -75 0
-8 -76 0
-73 -69 0
-74 -70 0
-75 -71 0
-76 -72 0
-73 -77 0
-74 -78 0
-75 -79 0
-76 -80 0
-73 -81 0
-74 -82 0
-75 -83 0
-76 -84 0
-73 -85 0
-74 -86 0
-75 -87 0
-76 -88 0
-73 -1 0
-74 -2 0
-75 -3 0
-76 -4 0
-5 -9 0
-6 -10 0
-7 -11 0
-8 -12 0
-9 -13 0
-10 -14 0
-11 -15 0
-12 -16 0
-13 -17 0
-14 -18 0
-15 -19 0
-16 -20 0
-17 -21 0
-18 -22 0
-19 -23 0
-20 -24 0
-21 -25 0
-22 -26 0
-23 -27 0
-24 -28 0
-25 -29 0
-26 -30 0
-27 -31 0
-28 -32 0
-29 -33 0
-30 -34 0
-31 -35 0
-32 -36 0
-33 -37 0
-34 -38 0
-35 -39 0
-36 -40 0
-37 -41 0
-38 -42 0
-39 -43 0
-40 -44 0
-89 -93 0
-90 -94 0
-91 -95 0
-92 -96 0
-93 -97 0
-94 -98 0
-95 -99 0
-96 -100 0
-97 -101 0
-98 -102 0
-99 -103 0
-100 -104 0
-101 -105 0
-102 -106 0
-103 -107 0
-104 -108 0
-105 -109 0
-106 -110 0
-107 -111 0
-108 -112 0
-109 -113 0
-110 -114 0
-111 -115 0
-112 -116 0
-113 -117 0
-114 -118 0
-115 -119 0
-116 -120 0
-117 -45 0
-118 -46 0
-119 -47 0
-120 -48 0
-121 -125 0
-122 -126 0
-123 -127 0
-124 -128 0
-125 -129 0
-126 -130 0
-127 -131 0
-128 -132 0
-129 -133 0
-130 -134 0
-131 -135 0
-132 -136 0
-133 -137 0
-134 -138 0
-135 -139 0
-136 -140 0
-137 -141 0
-138 -142 0
-139 -143 0
-140 -144 0
-141 -145 0
-142 -146 0
-143 -147 0
-144 -148 0
-145 -149 0
-146 -150 0
-147 -151 0
-148 -152 0
-153 -157 0
-154 -158 0
-155 -159 0
-156 -160 0
-157 -161 0
-158 -162 0
-159 -163 0
-160 -164 0
-161 -165 0
-162 -166 0
-163 -167 0
-164 -168 0
-165 -169 0
-166 -170 0
-167 -171 0
-168 -172 0
-169 -173 0
-170 -174 0
-171 -175 0
-172 -176 0
-173 -177 0
-174 -178 0
-175 -179 0
-176 -180 0
-181 -185 0
-182 -186 0
-183 -187 0
-184 -188 0
-185 -189 0
-186 -190 0
-187 -191 0
-188 -192 0
-189 -193 0
-190 -194 0
-191 -195 0
-192 -196 0
-193 -197 0
-194 -198 0
-195 -199 0
-196 -200 0
-197 -201 0
-198 -202 0
-199 -203 0
-200 -204 0
-205 -209 0
-206 -210 0
-207 -211 0
-208 -212 0
-209 -213 0
-210 -214 0
-211 -215 0
-212 -216 0
-213 -217 0
-214 -218 0
-215 -219 0
-216 -220 0
-217 -221 0
-218 -222 0
-219 -223 0
-220 -224 0
-225 -229 0
-226 -230 0
-227 -231 0
-228 -232 0
-229 -233 0
-230 -234 0
-231 -235 0
-232 -236 0
-233 -237 0
-234 -238 0
-235 -239 0
-236 -240 0
-241 -245 0
-242 -246 0
-243 -247 0
-244 -248 0
-245 -249 0
-246 -250 0
-247 -251 0
-248 -252 0
-253 -257 0
-254 -258 0
-255 -259 0
-256 -260 0
-261 -265 0
-262 -266 0
-263 -267 0
-264 -268 0
-269 -273 0
-270 -274 0
-271 -275 0
-272 -276 0
-273 -277 0
-274 -278 0
-275 -279 0
-276 -280 0
-281 -285 0
-282 -286 0
-283 -287 0
-284 -288 0
-285 -289 0
-286 -290 0
-287 -291 0
-288 -292 0
-289 -293 0
-290 -294 0
-291 -295 0
-292 -296 0
-297 -301 0
-298 -302 0
-299 -303 0
-300 -304 0
-301 -305 0
-302 -306 0
-303 -307 0
-304 -308 0
-305 -309 0
-306 -310 0
-307 -311 0
-308 -312 0
-309 -313 0
-310 -314 0
-311 -315 0
-312 -316 0
-317 -321 0
-318 -322 0
-319 -323 0
-320 -324 0
-321 -325 0
-322 -326 0
-323 -327 0
-324 -328 0
-325 -329 0
-326 -330 0
-327 -331 0
-328 -332 0
-329 -333 0
-330 -334 0
-331 -335 0
-332 -336 0
-333 -337 0
-334 -338 0
-335 -339 0
-336 -340 0
-341 -345 0
-342 -346 0
-343 -347 0
-344 -348 0
-345 -349 0
-346 -350 0
-347 -351 0
-348 -352 0
-349 -353 0
-350 -354 0
-351 -355 0
-352 -356 0
-353 -357 0
-354 -358 0
-355 -359 0
-356 -360 0
-357 -361 0
-358 -362 0
-359 -363 0
-360 -364 0
-361 -365 0
-362 -366 0
-363 -367 0
-364 -368 0
-369 -373 0
-370 -374 0
-371 -375 0
-372 -376 0
-373 -377 0
-374 -378 0
-375 -379 0
-376 -380 0
-377 -381 0
-378 -382 0
-379 -383 0
-380 -384 0
-381 -385 0
-382 -386 0
-383 -387 0
-384 -388 0
-385 -389 0
-386 -390 0
-387 -391 0
-388 -392 0
-389 -393 0
-390 -394 0
-391 -395 0
-392 -396 0
-393 -397 0
-394 -398 0
-395 -399 0
-396 -400 0
-401 -405 0
-402 -406 0
-403 -407 0
-404 -408 0
-405 -409 0
-406 -410 0
-407 -411 0
-408 -412 0
-409 -413 0
-410 -414 0
-411 -415 0
-412 -416 0
-413 -417 0
-414 -418 0
-415 -419 0
-416 -420 0
-417 -421 0
-418 -422 0
-419 -423 0
-420 -424 0
-421 -425 0
-422 -426 0
-423 -427 0
-424 -428 0
-425 -429 0
-426 -430 0
-427 -431 0
-428 -432 0
-429 -433 0
-430 -434 0
-431 -435 0
-432 -436 0
-49 -53 0
-50 -54 0
-51 -55 0
-52 -56 0
-53 -57 0
-54 -58 0
-55 -59 0
-56 -60 0
-57 -61 0
-58 -62 0
-59 -63 0
-60 -64 0
-61 -65 0
-62 -66 0
-63 -67 0
-64 -68 0
-65 -69 0
-66 -70 0
-67 -71 0
-68 -72 0
-69 -77 0
-70 -78 0
-71 -79 0
-72 -80 0
-77 -81 0
-78 -82 0
-79 -83 0
-80 -84 0
-81 -85 0
-82 -86 0
-83 -87 0
-84 -88 0
-85 -1 0
-86 -2 0
-87 -3 0
-88 -4 0
-5 -89 0
-6 -90 0
-7 -91 0
-8 -92 0
-9 -89 0
-10 -90 0
-11 -91 0
-12 -92 0
-9 -93 0
-10 -94 0
-11 -95 0
-12 -96 0
-13 -93 0
-14 -94 0
-15 -95 0
-16 -96 0
-13 -97 0
-14 -98 0
-15 -99 0
-16 -100 0
-17 -97 0
-18 -98 0
-19 -99 0
-20 -100 0
-17 -101 0
-18 -102 0
-19 -103 0
-20 -104 0
-21 -101 0
-22 -102 0
-23 -103 0
-24 -104 0
-21 -105 0
-22 -106 0
-23 -107 0
-24 -108 0
-25 -105 0
-26 -106 0
-27 -107 0
-28 -108 0
-25 -109 0
-26 -110 0
-27 -111 0
-28 -112 0
-29 -109 0
-30 -110 0
-31 -111 0
-32 -112 0
-29 -113 0
-30 -114 0
-31 -115 0
-32 -116 0
-33 -113 0
-34 -114 0
-35 -115 0
-36 -116 0
-33 -117 0
-34 -118 0
-35 -119 0
-36 -120 0
-37 -117 0
-38 -118 0
-39 -119 0
-40 -120 0
-37 -45 0
-38 -46 0
-39 -47 0
-40 -48 0
-41 -45 0
-42 -46 0
-43 -47 0
-44 -48 0
-89 -121 0
-90 -122 0
-91 -123 0
-92 -124 0
-93 -121 0
-94 -122 0
-95 -123 0
-96 -124 0
-93 -125 0
-94 -126 0
-95 -127 0
-96 -128 0
-97 -125 0
-98 -126 0
-99 -127 0
-100 -128 0
-97 -129 0
-98 -130 0
-99 -131 0
-100 -132 0
-101 -129 0
-102 -130 0
-103 -131 0
-104 -132 0
-101 -133 0
-102 -134 0
-103 -135 0
-104 -136 0
-105 -133 0
-106 -134 0
-107 -135 0
-108 -136 0
-105 -137 0
-106 -138 0
-107 -139 0
-108 -140 0
-109 -137 0
-110 -138 0
-111 -139 0
-112 -140 0
-109 -141 0
-110 -142 0
-111 -143 0
-112 -144 0
-113 -141 0
-114 -142 0
-115 -143 0
-116 -144 0
-113 -145 0
-114 -146 0
-115 -147 0
-116 -148 0
-117 -145 0
-118 -146 0
-119 -147 0
-120 -148 0
-117 -149 0
-118 -150 0
-119 -151 0
-120 -152 0
-45 -149 0
-46 -150 0
-47 -151 0
-48 -152 0
-121 -153 0
-122 -154 0
-123 -155 0
-124 -156 0
-125 -153 0
-126 -154 0
-127 -155 0
-128 -156 0
-125 -157 0
-126 -158 0
-127 -159 0
-128 -160 0
-129 -157 0
-130 -158 0
-131 -159 0
-132 -160 0
-129 -161 0
-130 -162 0
-131 -163 0
-132 -164 0
-133 -161 0
-134 -162 0
-135 -163 0
-136 -164 0
-133 -165 0
-134 -166 0
-135 -167 0
-136 -168 0
-137 -165 0
-138 -166 0
-139 -167 0
-140 -168 0
-137 -169 0
-138 -170 0
-139 -171 0
-140 -172 0
-141 -169 0
-142 -170 0
-143 -171 0
-144 -172 0
-141 -173 0
-142 -174 0
-143 -175 0
-144 -176 0
-145 -173 0
-146 -174 0
-147 -175 0
-148 -176 0
-145 -177 0
-146 -178 0
-147 -179 0
-148 -180 0
-149 -177 0
-150 -178 0
-151 -179 0
-152 -180 0
-153 -181 0
-154 -182 0
-155 -183 0
-156 -184 0
-157 -181 0
-158 -182 0
-159 -183 0
-160 -184 0
-157 -185 0
-158 -186 0
-159 -187 0
-160 -188 0
-161 -185 0
-162 -186 0
-163 -187 0
-164 -188 0
-161 -189 0
-162 -190 0
-163 -191 0
-164 -192 0
-165 -189 0
-166 -190 0
-167 -191 0
-168 -192 0
-165 -193 0
-166 -194 0
-167 -195 0
-168 -196 0
-169 -193 0
-170 -194 0
-171 -195 0
-172 -196 0
-169 -197 0
-170 -198 0
-171 -199 0
-172 -200 0
-173 -197 0
-174 -198 0
-175 -199 0
-176 -200 0
-173 -201 0
-174 -202 0
-175 -203 0
-176 -204 0
-177 -201 0
-178 -202 0
-179 -203 0
-180 -204 0
-181 -205 0
-182 -206 0
-183 -207 0
-184 -208 0
-185 -205 0
-186 -206 0
-187 -207 0
-188 -208 0
-185 -209 0
-186 -210 0
-187 -211 0
-188 -212 0
-189 -209 0
-190 -210 0
-191 -211 0
-192 -212 0
-189 -213 0
-190 -214 0
-191 -215 0
-192 -216 0
-193 -213 0
-194 -214 0
-195 -215 0
-196 -216 0
-193 -217 0
-194 -218 0
-195 -219 0
-196 -220 0
-197 -217 0
-198 -218 0
-199 -219 0
-200 -220 0
-197 -221 0
-198 -222 0
-199 -223 0
-200 -224 0
-201 -221 0
-202 -222 0
-203 -223 0
-204 -224 0
-205 -225 0
-206 -226 0
-207 -227 0
-208 -228 0
-209 -225 0
-210 -226 0
-211 -227 0
-212 -228 0
-209 -229 0
-210 -230 0
-211 -231 0
-212 -232 0
-213 -229 0
-214 -230 0
-215 -231 0
-216 -232 0
-213 -233 0
-214 -234 0
-215 -235 0
-216 -236 0
-217 -233 0
-218 -234 0
-219 -235 0
-220 -236 0
-217 -237 0
-218 -238 0
-219 -239 0
-220 -240 0
-221 -237 0
-222 -238 0
-223 -239 0
-224 -240 0
-225 -241 0
-226 -242 0
-227 -243 0
-228 -244 0
-229 -241 0
-230 -242 0
-231 -243 0
-232 -244 0
-229 -245 0
-230 -246 0
-231 -247 0
-232 -248 0
-233 -245 0
-234 -246 0
-235 -247 0
-236 -248 0
-233 -249 0
-234 -250 0
-235 -251 0
-236 -252 0
-237 -249 0
-238 -250 0
-239 -251 0
-240 -252 0
-241 -253 0
-242 -254 0
-243 -255 0
-244 -256 0
-245 -253 0
-246 -254 0
-247 -255 0
-248 -256 0
-245 -257 0
-246 -258 0
-247 -259 0
-248 -260 0
-249 -257 0
-250 -258 0
-251 -259 0
-252 -260 0
-253 -437 0
-254 -438 0
-255 -439 0
-256 -440 0
-257 -437 0
-258 -438 0
-259 -439 0
-260 -440 0
-269 -261 0
-270 -262 0
-271 -263 0
-272 -264 0
-273 -261 0
-274 -262 0
-275 -263 0
-276 -264 0
-273 -265 0
-274 -266 0
-275 -267 0
-276 -268 0
-277 -265 0
-278 -266 0
-279 -267 0
-280 -268 0
-281 -269 0
-282 -270 0
-283 -271 0
-284 -272 0
-285 -269 0
-286 -270 0
-287 -271 0
-288 -272 0
-285 -273 0
-286 -274 0
-287 -275 0
-288 -276 0
-289 -273 0
-290 -274 0
-291 -275 0
-292 -276 0
-289 -277 0
-290 -278 0
-291 -279 0
-292 -280 0
-293 -277 0
-294 -278 0
-295 -279 0
-296 -280 0
-297 -281 0
-298 -282 0
-299 -283 0
-300 -284 0
-301 -281 0
-302 -282 0
-303 -283 0
-304 -284 0
-301 -285 0
-302 -286 0
-303 -287 0
-304 -288 0
-305 -285 0
-306 -286 0
-307 -287 0
-308 -288 0
-305 -289 0
-306 -290 0
-307 -291 0
-308 -292 0
-309 -289 0
-310 -290 0
-311 -291 0
-312 -292 0
-309 -293 0
-310 -294 0
-311 -295 0
-312 -296 0
-313 -293 0
-314 -294 0
-315 -295 0
-316 -296 0
-317 -297 0
-318 -298 0
-319 -299 0
-320 -300 0
-321 -297 0
-322 -298 0
-323 -299 0
-324 -300 0
-321 -301 0
-322 -302 0
-323 -303 0
-324 -304 0
-325 -301 0
-326 -302 0
-327 -303 0
-328 -304 0
-325 -305 0
-326 -306 0
-327 -307 0
-328 -308 0
-329 -305 0
-330 -306 0
-331 -307 0
-332 -308 0
-329 -309 0
-330 -310 0
-331 -311 0
-332 -312 0
-333 -309 0
-334 -310 0
-335 -311 0
-336 -312 0
-333 -313 0
-334 -314 0
-335 -315 0
-336 -316 0
-337 -313 0
-338 -314 0
-339 -315 0
-340 -316 0
-341 -317 0
-342 -318 0
-343 -319 0
-344 -320 0
-345 -317 0
-346 -318 0
-347 -319 0
-348 -320 0
-345 -321 0
-346 -322 0
-347 -323 0
-348 -324 0
-349 -321 0
-350 -322 0
-351 -323 0
-352 -324 0
-349 -325 0
-350 -326 0
-351 -327 0
-352 -328 0
-353 -325 0
-354 -326 0
-355 -327 0
-356 -328 0
-353 -329 0
-354 -330 0
-355 -331 0
-356 -332 0
-357 -329 0
-358 -330 0
-359 -331 0
-360 -332 0
-357 -333 0
-358 -334 0
-359 -335 0
-360 -336 0
-361 -333 0
-362 -334 0
-363 -335 0
-364 -336 0
-361 -337 0
-362 -338 0
-363 -339 0
-364 -340 0
-365 -337 0
-366 -338 0
-367 -339 0
-368 -340 0
-369 -341 0
-370 -342 0
-371 -343 0
-372 -344 0
-373 -341 0
-374 -342 0
-375 -343 0
-376 -344 0
-373 -345 0
-374 -346 0
-375 -347 0
-376 -348 0
-377 -345 0
-378 -346 0
-379 -347 0
-380 -348 0
-377 -349 0
-378 -350 0
-379 -351 0
-380 -352 0
-381 -349 0
-382 -350 0
-383 -351 0
-384 -352 0
-381 -353 0
-382 -354 0
-383 -355 0
-384 -356 0
-385 -353 0
-386 -354 0
-387 -355 0
-388 -356 0
-385 -357 0
-386 -358 0
-387 -359 0
-388 -360 0
-389 -357 0
-390 -358 0
-391 -359 0
-392 -360 0
-389 -361 0
-390 -362 0
-391 -363 0
-392 -364 0
-393 -361 0
-394 -362 0
-395 -363 0
-396 -364 0
-393 -365 0
-394 -366 0
-395 -367 0
-396 -368 0
-397 -365 0
-398 -366 0
-399 -367 0
-400 -368 0
-401 -369 0
-402 -370 0
-403 -371 0
-404 -372 0
-405 -369 0
-406 -370 0
-407 -371 0
-408 -372 0
-405 -373 0
-406 -374 0
-407 -375 0
-408 -376 0
-409 -373 0
-410 -374 0
-411 -375 0
-412 -376 0
-409 -377 0
-410 -378 0
-411 -379 0
-412 -380 0
-413 -377 0
-414 -378 0
-415 -379 0
-416 -380 0
-413 -381 0
-414 -382 0
-415 -383 0
-416 -384 0
-417 -381 0
-418 -382 0
-419 -383 0
-420 -384 0
-417 -385 0
-418 -386 0
-419 -387 0
-420 -388 0
-421 -385 0
-422 -386 0
-423 -387 0
-424 -388 0
-421 -389 0
-422 -390 0
-423 -391 0
-424 -392 0
-425 -389 0
-426 -390 0
-427 -391 0
-428 -392 0
-425 -393 0
-426 -394 0
-427 -395 0
-428 -396 0
-429 -393 0
-430 -394 0
-431 -395 0
-432 -396 0
-429 -397 0
-430 -398 0
-431 -399 0
-432 -400 0
-433 -397 0
-434 -398 0
-435 -399 0
-436 -400 0
-49 -401 0
-50 -402 0
-51 -403 0
-52 -404 0
-53 -401 0
-54 -402 0
-55 -403 0
-56 -404 0
-53 -405 0
-54 -406 0
-55 -407 0
-56 -408 0
-57 -405 0
-58 -406 0
-59 -407 0
-60 -408 0
-57 -409 0
-58 -410 0
-59 -411 0
-60 -412 0
-61 -409 0
-62 -410 0
-63 -411 0
-64 -412 0
-61 -413 0
-62 -414 0
-63 -415 0
-64 -416 0
-65 -413 0
-66 -414 0
-67 -415 0
-68 -416 0
-65 -417 0
-66 -418 0
-67 -419 0
-68 -420 0
-69 -417 0
-70 -418 0
-71 -419 0
-72 -420 0
-69 -421 0
-70 -422 0
-71 -423 0
-72 -424 0
-77 -421 0
-78 -422 0
-79 -423 0
-80 -424 0
-77 -425 0
-78 -426 0
-79 -427 0
-80 -428 0
-81 -425 0
-82 -426 0
-83 -427 0
-84 -428 0
-81 -429 0
-82 -430 0
-83 -431 0
-84 -432 0
-85 -429 0
-86 -430 0
-87 -431 0
-88 -432 0
-85 -433 0
-86 -434 0
-87 -435 0
-88 -436 0
-1 -433 0
-2 -434 0
-3 -435 0
-4 -436 0
-5 -49 0
-6 -50 0
-7 -51 0
-8 -52 0
-89 -49 0
-90 -50 0
-91 -51 0
-92 -52 0
-89 -401 0
-90 -402 0
-91 -403 0
-92 -404 0
-121 -401 0
-122 -402 0
-123 -403 0
-124 -404 0
-121 -369 0
-122 -370 0
-123 -371 0
-124 -372 0
-153 -369 0
-154 -370 0
-155 -371 0
-156 -372 0
-153 -341 0
-154 -342 0
-155 -343 0
-156 -344 0
-181 -341 0
-182 -342 0
-183 -343 0
-184 -344 0
-181 -317 0
-182 -318 0
-183 -319 0
-184 -320 0
-205 -317 0
-206 -318 0
-207 -319 0
-208 -320 0
-205 -297 0
-206 -298 0
-207 -299 0
-208 -300 0
-225 -297 0
-226 -298 0
-227 -299 0
-228 -300 0
-225 -281 0
-226 -282 0
-227 -283 0
-228 -284 0
-241 -281 0
-242 -282 0
-243 -283 0
-244 -284 0
-241 -269 0
-242 -270 0
-243 -271 0
-244 -272 0
-253 -269 0
-254 -270 0
-255 -271 0
-256 -272 0
-253 -261 0
-254 -262 0
-255 -263 0
-256 -264 0
-253 -437 0
-254 -438 0
-255 -439 0
-256 -440 0
-257 -437 0
-258 -438 0
-259 -439 0
-260 -440 0
-437 -261 0
-438 -262 0
-439 -263 0
-440 -264 0
-437 -265 0
-438 -266 0
-439 -267 0
-440 -268 0
-257 -265 0
-258 -266 0
-259 -267 0
-260 -268 0
-257 -277 0
-258 -278 0
-259 -279 0
-260 -280 0
-249 -277 0
-250 -278 0
-251 -279 0
-252 -280 0
-249 -293 0
-250 -294 0
-251 -295 0
-252 -296 0
-237 -293 0
-238 -294 0
-239 -295 0
-240 -296 0
-237 -313 0
-238 -314 0
-239 -315 0
-240 -316 0
-221 -313 0
-222 -314 0
-223 -315 0
-224 -316 0
-221 -337 0
-222 -338 0
-223 -339 0
-224 -340 0
-201 -337 0
-202 -338 0
-203 -339 0
-204 -340 0
-201 -365 0
-202 -366 0
-203 -367 0
-204 -368 0
-177 -365 0
-178 -366 0
-179 -367 0
-180 -368 0
-177 -397 0
-178 -398 0
-179 -399 0
-180 -400 0
-149 -397 0
-150 -398 0
-151 -399 0
-152 -400 0
-149 -433 0
-150 -434 0
-151 -435 0
-152 -436 0
-45 -433 0
-46 -434 0
-47 -435 0
-48 -436 0
-45 -1 0
-46 -2 0
-47 -3 0
-48 -4 0
-41 -1 0
-42 -2 0
-43 -3 0
-44 -4 0
